
Gurobi 7.5.1 (mac64, Java) logging started Sun Sep  3 16:21:58 2017


Gurobi 7.5.1 (mac64, Java) logging started Sun Sep  3 16:21:58 2017


Gurobi 7.5.1 (mac64, Java) logging started Sun Sep  3 16:27:54 2017


Gurobi 7.5.1 (mac64, Java) logging started Sun Sep  3 16:27:54 2017


Gurobi 7.5.1 (mac64, Java) logging started Sun Sep  3 16:29:57 2017

Academic license - for non-commercial use only

Gurobi 7.5.1 (mac64, Java) logging started Sun Sep  3 16:29:57 2017

Academic license - for non-commercial use only

Gurobi 7.5.1 (mac64, Java) logging started Sun Sep  3 16:32:52 2017

Academic license - for non-commercial use only

Gurobi 7.5.1 (mac64, Java) logging started Sun Sep  3 16:32:52 2017

Academic license - for non-commercial use only

Gurobi 7.5.1 (mac64, Java) logging started Sun Sep  3 16:57:30 2017

Academic license - for non-commercial use only

Gurobi 7.5.1 (mac64, Java) logging started Sun Sep  3 16:57:30 2017

Academic license - for non-commercial use only

Gurobi 7.5.1 (mac64, Java) logging started Sun Sep  3 16:57:56 2017

Academic license - for non-commercial use only

Gurobi 7.5.1 (mac64, Java) logging started Sun Sep  3 16:57:56 2017

Academic license - for non-commercial use only

Gurobi 7.5.1 (mac64, Java) logging started Mon Sep  4 17:02:52 2017

Academic license - for non-commercial use only

Gurobi 7.5.1 (mac64, Java) logging started Mon Sep  4 17:02:52 2017

Academic license - for non-commercial use only

Gurobi 7.5.1 (mac64, Java) logging started Mon Sep  4 17:03:19 2017

Academic license - for non-commercial use only

Gurobi 7.5.1 (mac64, Java) logging started Mon Sep  4 17:03:19 2017

Academic license - for non-commercial use only

Gurobi 7.5.1 (mac64, Java) logging started Mon Sep  4 17:03:33 2017

Academic license - for non-commercial use only

Gurobi 7.5.1 (mac64, Java) logging started Mon Sep  4 17:03:33 2017

Academic license - for non-commercial use only

Gurobi 7.5.1 (mac64, Java) logging started Mon Sep  4 17:03:46 2017

Academic license - for non-commercial use only

Gurobi 7.5.1 (mac64, Java) logging started Mon Sep  4 17:29:01 2017

Academic license - for non-commercial use only

Gurobi 7.5.1 (mac64, Java) logging started Mon Sep  4 17:29:01 2017

Academic license - for non-commercial use only

Gurobi 7.5.1 (mac64, Java) logging started Mon Sep 25 16:23:16 2017

Academic license - for non-commercial use only

Gurobi 7.5.1 (mac64, Java) logging started Mon Sep 25 16:23:16 2017

Academic license - for non-commercial use only

Gurobi 7.5.1 (mac64, Java) logging started Mon Sep 25 16:23:31 2017

Academic license - for non-commercial use only

Gurobi 7.5.1 (mac64, Java) logging started Mon Sep 25 16:23:31 2017

Academic license - for non-commercial use only

Gurobi 7.5.1 (mac64, Java) logging started Fri Jun 22 17:18:32 2018

Academic license - for non-commercial use only

Gurobi 7.5.1 (mac64, Java) logging started Fri Jun 22 17:18:32 2018

Academic license - for non-commercial use only
